peakDumbCharging = 11100; 
Machine = anon_enum(16); 
machineSpeed = [3700,3700,3700,3700,3700,3700,3700,3700,3700,3700,3700,3700,3700,3700,3700,3700]; 
machineLoad = [3700,3700,3700,3700,3700,3700,3700,3700,3700,3700,3700,3700,3700,3700,3700,3700]; 
Car = anon_enum(10); 
demandCar = [10080,3960,6080,10520,2160,17120,9680,12960,15240,6800]; 
arrivalCar = [77,68,66,63,60,59,58,53,43,38]; 
departureCar = [81,70,71,74,62,68,62,60,49,45]; 
